Version identifier: 20.1.0.0 | 2020-11-10 | 9bedb6d68
Tried aggregator 3 times.
MIP Presolve eliminated 708 rows and 415 columns.
MIP Presolve modified 1318 coefficients.
Aggregator did 63 substitutions.
Reduced MIP has 435 rows, 354 columns, and 1311 nonzeros.
Reduced MIP has 93 binaries, 261 generals, 0 SOSs, and 0 indicators.
Presolve time = 0.01 sec. (2.90 ticks)
Found incumbent of value 322.000000 after 0.01 sec. (4.30 ticks)
Probing fixed 12 vars, tightened 78 bounds.
Probing time = 0.00 sec. (0.29 ticks)
Tried aggregator 2 times.
Detecting symmetries...
MIP Presolve eliminated 151 rows and 12 columns.
MIP Presolve modified 26 coefficients.
Aggregator did 17 substitutions.
Reduced MIP has 267 rows, 325 columns, and 817 nonzeros.
Reduced MIP has 121 binaries, 204 generals, 0 SOSs, and 0 indicators.
Presolve time = 0.00 sec. (1.12 ticks)
Probing time = 0.00 sec. (0.09 ticks)
Clique table members: 40.
MIP emphasis: balance optimality and feasibility.
MIP search method: dynamic search.
Parallel mode: deterministic, using up to 24 threads.
Root relaxation solution time = 0.00 sec. (0.93 ticks)

        Nodes                                         Cuts/
   Node  Left     Objective  IInf  Best Integer    Best Bound    ItCnt     Gap

*     0+    0                          322.0000        0.0000           100.00%
*     0+    0                           21.0000        0.0000           100.00%
      0     0        0.5625    60       21.0000        0.5625      122   97.32%
*     0+    0                           11.0000        0.5625            94.89%
      0     0        2.2051    97       11.0000      Cuts: 53      197   79.95%
      0     0        3.0769   132       11.0000      Cuts: 72      293   72.03%
      0     0        3.4734   141       11.0000      Cuts: 80      352   68.42%
      0     0        3.7708   134       11.0000      Cuts: 43      397   65.72%
      0     0        3.8750   120       11.0000      Cuts: 49      426   64.77%
      0     0        4.0366   150       11.0000      Cuts: 43      498   63.30%
      0     0        4.0882   144       11.0000      Cuts: 55      525   62.83%
      0     0        4.1146   154       11.0000      Cuts: 51      543   62.59%
      0     0        4.1184   146       11.0000      Cuts: 26      565   62.56%
      0     0        4.1212   144       11.0000      Cuts: 31      580   62.53%
      0     0        4.1246   152       11.0000      Cuts: 28      617   62.50%
      0     0        4.1429   144       11.0000      Cuts: 55      654   62.34%
      0     0        4.1765   129       11.0000      Cuts: 35      685   62.03%
      0     0        4.1825   147       11.0000      Cuts: 62      734   61.98%
      0     0        4.1845   152       11.0000      Cuts: 30      758   61.96%
      0     0        4.1860   153       11.0000      Cuts: 17      771   61.95%
      0     0        4.1980   158       11.0000      Cuts: 23      783   61.84%
      0     0        4.1986   153       11.0000      Cuts: 14      797   61.83%
      0     0        4.2222   121       11.0000      Cuts: 25      812   61.62%
      0     0        4.2222   130       11.0000      Cuts: 47      878   61.62%
*     0+    0                            8.0000        4.2222            47.22%
      0     0        cutoff              8.0000        8.0000      878    0.00%
Elapsed time = 0.36 sec. (83.14 ticks, tree = 0.01 MB, solutions = 4)

Clique cuts applied:  4
Implied bound cuts applied:  18
Flow cuts applied:  1
Mixed integer rounding cuts applied:  4
Zero-half cuts applied:  23
Gomory fractional cuts applied:  5

Root node processing (before b&c):
  Real time             =    0.36 sec. (83.19 ticks)
Parallel b&c, 24 threads:
  Real time             =    0.00 sec. (0.00 ticks)
  Sync time (average)   =    0.00 sec.
  Wait time (average)   =    0.00 sec.
                          ------------
Total (root+branch&cut) =    0.36 sec. (83.19 ticks)

Solution status = Optimal
Solution LB = 8
Solution UB = 8
Runtime = 0.36088 seconds
	Command being timed: "/home/min/git_repos/CS598MEBProject/CNT-ILP/build/cnt -s 2 ./output/k6_n15/simC_c1_k6_n15_u1_s1_del04.input-left.cnp"
	User time (seconds): 6.05
	System time (seconds): 0.01
	Percent of CPU this job got: 1548%
	Elapsed (wall clock) time (h:mm:ss or m:ss): 0:00.39
	Average shared text size (kbytes): 0
	Average unshared data size (kbytes): 0
	Average stack size (kbytes): 0
	Average total size (kbytes): 0
	Maximum resident set size (kbytes): 44596
	Average resident set size (kbytes): 0
	Major (requiring I/O) page faults: 0
	Minor (reclaiming a frame) page faults: 8192
	Voluntary context switches: 1768
	Involuntary context switches: 901
	Swaps: 0
	File system inputs: 0
	File system outputs: 16
	Socket messages sent: 0
	Socket messages received: 0
	Signals delivered: 0
	Page size (bytes): 4096
	Exit status: 0
